
Log started (V12.6.1.0) Tue Feb 06 18:40:09 2018

New value for time limit in seconds: 10800
New value for default parallel thread count: 1
Tried aggregator 9 times.
MIP Presolve eliminated 18123 rows and 1298 columns.
MIP Presolve modified 163 coefficients.
Aggregator did 30 substitutions.
Reduced MIP has 3766 rows, 17569 columns, and 106806 nonzeros.
Reduced MIP has 17370 binaries, 199 generals, 0 SOSs, and 0 indicators.
Presolve time = 0.61 sec. (143.82 ticks)
Probing time = 0.06 sec. (6.81 ticks)
Tried aggregator 1 time.
Reduced MIP has 3766 rows, 17569 columns, and 106806 nonzeros.
Reduced MIP has 17370 binaries, 199 generals, 0 SOSs, and 0 indicators.
Presolve time = 0.23 sec. (47.43 ticks)
Probing time = 0.02 sec. (5.89 ticks)
Clique table members: 47097.
MIP emphasis: balance optimality and feasibility.
MIP search method: dynamic search.
Parallel mode: none, using 1 thread.
Root relaxation solution time = 3.86 sec. (1383.33 ticks)

        Nodes                                         Cuts/
   Node  Left     Objective  IInf  Best Integer    Best Bound    ItCnt     Gap

      0     0       17.0000   866                     17.0000     4805         
      0     0       22.3333   177                   Fract: 11     6340         
      0     0       27.7556   594                    Cuts: 84     8972         
      0     0       27.7556   568                    Cuts: 37    12127         
      0     0       27.7556   589                    Cuts: 39    15858         
      0     2       27.7556   270                     27.7556    16592         
Elapsed time = 63.41 sec. (20215.79 ticks, tree = 0.00 MB, solutions = 0)
      1     3       27.7556   318                     27.7556    22022         

Clique cuts applied:  43
Zero-half cuts applied:  12
Gomory fractional cuts applied:  29

Root node processing (before b&c):
  Real time             =   61.87 sec. (19818.59 ticks)
Sequential b&c:
  Real time             =   12.25 sec. (3500.55 ticks)
                          ------------
Total (root+branch&cut) =   74.13 sec. (23319.14 ticks)


MIP - Aborted, no integer solution.
Current MIP best bound = 2.7755555556e+001 (gap is infinite)
Solution time =   74.42 sec.  Iterations = 24601  Nodes = 2 (3)
Deterministic time = 23319.20 ticks  (313.34 ticks/sec)


CPLEX Error  1217: No solution exists.
No file written.
